62828654883064176685014,9,1,2,014,2,1,2,014,1,1,2,08,5,1,2,011,10,1,2,05,15,1,2,08,11,1,2,01,4,1,2,012,15,1,2,09,3,1,2,03,15,1,2,02,6,1,2,08,10,1,2,08,5,1,2,05,12,1,2,013,13,1,2,011,3,1,2,01,8,1,2,03,11,1,2,07,4,1,2,011,14,1,2,01,8,1,2,06,1,1,2,06,3,1,2,010,11,1,2,09,4,1,2,03,11,1,2,03,6,1,2,014,8,1,2,010,6,1,2,012,2,1,2,07,6,1,2,07,13,1,2,08,11,1,2,012,7,1,2,03,14,1,2,09,6,1,2,014,9,1,2,01,13,1,2,014,5,1,2,07,6,1,2,09,15,1,2,07,3,1,2,015,1,1,2,010,1,1,2,013,8,1,2,07,11,1,2,01,7,1,2,07,10,1,2,014,9,1,2,0